NAME : pr76.150569381.tour
COMMENT : Length = 150569381
COMMENT : Found by LKH-3 [Keld Helsgaun] Wed Jun  5 06:13:31 2024
TYPE : TOUR
DIMENSION : 80
TOUR_SECTION
1
2
7
8
74
14
13
15
16
11
12
9
6
3
80
20
19
31
32
33
35
34
40
59
60
41
39
38
36
37
18
17
10
5
4
78
76
75
79
26
27
43
42
54
53
49
50
67
70
68
69
47
48
44
45
46
24
22
23
77
21
25
52
51
66
65
71
72
73
64
63
62
61
58
57
56
55
28
29
30
-1
EOF
